50
15750

374 267
716 492
461 903
294 994
583 719
294 729
835 359
899 628
820 440
431 222
180 59
357 399
883 633
248 544
799 584
78 472
525 180
410 503
333 463
591 788
600 394
951 407
704 692
673 636
385 133
860 555
6 288
336 264
941 395
173 242
961 648
352 425
491 595
205 75
151 78
110 98
712 984
165 877
985 660
246 628
399 995
218 338
681 677
912 482
306 884
163 940
39 974
452 956
857 324
606 828
